proyfinal/src/viki/013/experimentInOfficeAgust.take6.output/4952c113-b6d7-467b-bc25-38fd108b7240.als.out
Reading from standard input... Use '--help' for help.
============================[ Problem Statistics ]=============================
|                                                                             |
|  Number of variables:         87638                                         |
|  Number of clauses:          161767                                         |
|  Parse time:                   0.04 s                                       |
|                                                                             |
============================[ Search Statistics ]==============================
| Conflicts |          ORIGINAL         |          LEARNT          | Progress |
|           |    Vars  Clauses Literals |    Limit  Clauses Lit/Cl |          |
===============================================================================
|       100 |   62798   106620   266465 |    39094      100     24 | 28.344 % |
|       250 |   62797   106576   266375 |    43003      249     35 | 28.345 % |
|       475 |   62797   106576   266375 |    47303      474     48 | 28.345 % |
|       812 |   50572    71648   180317 |    52034      773     40 | 42.294 % |
|      1318 |   50293    70776   178094 |    57237     1246     42 | 42.613 % |
|      2077 |   50055    69963   176106 |    62961     1957     41 | 42.884 % |
|      3216 |   49673    68828   172881 |    69257     3005     43 | 43.320 % |
|      4924 |   49529    68361   171757 |    76183     4663     42 | 43.485 % |
|      7486 |   49327    67345   169329 |    83801     7194     47 | 43.715 % |
|     11330 |   49096    66347   166944 |    92181    11005     49 | 43.979 % |
===============================================================================
restarts              : 53
conflicts             : 12214          (8710 /sec)
decisions             : 42188          (0.00 % random) (30084 /sec)
propagations          : 16404835       (11698028 /sec)
conflict literals     : 569374         (43.74 % deleted)
Memory used           : 26.19 MB
CPU time              : 1.40236 s

UNSATISFIABLE
